### SET
param n := 13;
param N := 30;

### PARAMETERS

param y_i :=
 1 0.1
 2 0.15
 3 0.2
 4 0.23
 5 0.26
 6 0.3
 7 0.32
 8 0.37
 9 0.4
 10 0.42
 11 0.45
 12 0.48
 13 0.5
 14 0.51
 15 0.54
 16 0.56
 17 0.59
 18 0.61
 19 0.63
 20 0.68
 21 0.7
 22 0.71
 23 0.72
 24 0.76
 25 0.8
 26 0.85
 27 0.88
 28 0.89
 29 0.9
 30 1;
